&CONTROL
   calculation = 'scf',
         title = 'calcite',
     verbosity = 'high',
  restart_mode = 'from_scratch',
    wf_collect = .true.,disk_io = 'none'
         nstep = 1000,
       tstress = .false.,
       tprnfor = .true.,
        outdir = './out',
    pseudo_dir = './pseudo',
        prefix = 'calcite',
 forc_conv_thr = 1D-5
 etot_conv_thr = 1D-6
/
 &SYSTEM
         ibrav = 0,
           nat = 337,
          ntyp = 4,
       ecutwfc = 50,
       ecutrho = 400,
     input_dft = 'rvv10',
 /
 &ELECTRONS
  electron_maxstep = 100
       mixing_beta = 0.2
 /
 &IONS
 /
 &CELL
 /
CELL_PARAMETERS (angstrom)
  16.229816915   0.000000000   0.000000000
   0.000000000  10.000099999   0.000000000
   0.000000000   0.000000000  22.841960576
K_POINTS {automatic}
1 2 1 0 0 0
ATOMIC_SPECIES
Ca  40.0780  Ca_pbe_v1.uspp.F.UPF
O   15.9994   O_pbe_v1.2.uspp.F.UPF
C   12.0110   C_pbe_v1.2.uspp.F.UPF
H    1.0000   H_ONCV_PBE-1.0.oncvpsp.upf 
ATOMIC_POSITIONS angstrom
 Ca 1.4329 3.54214 5.03641
 Ca 5.49593 3.56798 5.12656
 Ca 0.0628948 1.03474 7.98371
 Ca 4.18562 0.934282 8.0385
 Ca 15.6533 3.57858 11.1579
 Ca 3.28368 3.62115 11.0613
 Ca 14.3286 1.1045 14.0524
 Ca 2.16725 1.12755 13.9308
 C 15.5265 1.03242 5.01468
 O 14.6544 0.322544 27.1666
 O 15.6264 2.32178 4.99359
 O 0.0585549 0.347453 5.74225
 C 3.4064 1.09259 4.9684
 O 2.69387 1.72208 26.9888
 O 3.36105 9.79983 4.99886
 O 4.16245 1.72723 5.73905
 C 2.22364 3.51369 8.07437
 O 1.41641 2.84266 7.31919
 O 2.29051 4.78376 8.0221
 O 3.01214 2.83457 8.84729
 C 6.36301 3.43876 8.07067
 O 5.4846 4.18694 7.49162
 O 6.28776 2.12279 7.90091
 O 7.23158 3.90699 8.81439
 C 1.29489 1.08744 11.0031
 O 0.449792 1.69705 10.2232
 O 1.27116 9.82142 11.1342
 O 1.99518 1.85488 11.7259
 C 5.31306 1.00849 11.1277
 O 4.57423 0.37786 10.244
 O 5.29608 2.29114 11.2034
 O 5.97169 0.275847 11.9748
 C 0.2807 3.3975 14.1071
 O 15.9129 2.70311 13.2186
 O 0.35062 4.66281 13.9995
 O 0.8365 2.74491 15.0315
 C 4.16453 3.56118 14.1393
 O 3.44998 4.15428 13.2694
 O 4.18447 2.28126 14.1684
 O 4.89329 4.3151 14.8975
 Ca 9.46776 3.59131 5.00334
 Ca 13.6265 3.55098 5.0722
 Ca 8.35414 0.833866 7.9476
 Ca 12.3793 1.01866 7.92103
 Ca 7.38781 3.33133 11.0073
 Ca 11.3909 3.51321 11.0771
 Ca 6.24145 0.933952 14.1507
 Ca 10.2947 0.958415 14.04
 C 7.36944 0.961405 4.99079
 O 6.49431 0.368751 27.0464
 O 7.46937 2.25177 5.01215
 O 8.05385 0.250484 5.75738
 C 11.4911 1.05068 4.9556
 O 10.6745 1.75274 27.1081
 O 11.4525 9.75652 4.89689
 O 12.3191 1.6327 5.69528
 C 10.3494 3.5223 7.98647
 O 9.62514 2.88221 7.17582
 O 10.3359 4.82126 8.07064
 O 11.1953 2.86465 8.72473
 C 14.3885 3.49395 8.0897
 O 13.568 4.20218 7.3621
 O 14.4283 2.26142 8.00172
 O 15.2565 4.0813 8.8711
 C 9.41802 0.985785 10.945
 O 8.61293 1.62102 10.1205
 O 9.40082 9.72005 10.9195
 O 10.1513 1.63017 11.7975
 C 13.3809 1.09473 11.0726
 O 12.5299 0.538364 10.2979
 O 13.3962 2.42676 11.1717
 O 14.1868 0.364164 11.7669
 C 8.37112 3.28355 14.2173
 O 9.1475 2.71175 15.0555
 O 7.7903 2.58896 13.3567
 O 8.15112 4.55854 14.2559
 C 12.388 3.38341 13.9795
 O 11.5702 4.18208 13.3965
 O 12.2289 2.05912 13.9285
 O 13.3357 3.89074 14.6741
 Ca 1.34773 8.50212 5.10034
 Ca 5.37492 8.572 5.12033
 Ca 0.139746 6.01582 8.15672
 Ca 4.08517 6.08966 8.06256
 Ca 15.566 8.54529 11.1617
 Ca 3.42921 8.56885 11.2168
 Ca 14.4613 5.90745 14.2823
 Ca 2.2421 6.03854 14.1528
 C 15.5125 5.99107 5.06781
 O 14.7316 5.4093 27.0156
 O 15.5416 7.28229 5.15122
 O 16.2254 5.2673 5.80216
 C 3.31 5.99827 5.11919
 O 2.38478 6.54435 27.233
 O 3.47049 4.71553 5.0887
 O 4.10221 6.72904 5.78612
 C 2.37123 8.51248 8.03119
 O 1.74148 7.64766 7.28007
 O 2.06869 9.77074 7.96069
 O 3.21653 8.12924 8.9621
 C 6.30128 8.53315 8.06126
 O 5.60523 9.22376 7.23798
 O 6.2329 7.25929 8.09241
 O 7.13511 9.16012 8.81236
 C 1.28762 6.16333 11.1688
 O 0.522956 6.79832 10.3217
 O 1.3579 4.87071 11.0578
 O 2.07022 6.81183 11.9967
 C 5.39323 6.01675 11.123
 O 4.5192 5.45813 10.3689
 O 5.34834 7.27122 11.2935
 O 6.21649 5.29708 11.8715
 C 0.0627807 8.58624 14.1861
 O 15.4381 8.0503 13.4359
 O 0.199753 9.8769 14.1987
 O 0.823403 7.7989 14.8324
 C 4.41929 8.53278 14.2669
 O 3.68427 9.18288 13.4223
 O 4.31574 7.26159 14.1995
 O 5.24645 9.10475 15.1138
 Ca 9.38958 8.48157 4.91947
 Ca 13.5069 8.53005 5.02404
 Ca 8.16724 6.05575 7.9726
 Ca 12.3403 6.09584 8.09774
 Ca 7.27202 8.53352 11.0604
 Ca 11.4474 8.6489 11.1859
 Ca 6.22018 5.8994 14.0574
 Ca 10.2091 5.84585 13.988
 C 7.29695 5.95033 5.0423
 O 6.57566 5.39801 26.9562
 O 7.33173 7.23555 5.15796
 O 7.92236 5.18731 5.80602
 C 11.3618 5.90755 5.11532
 O 10.2244 6.36664 27.4178
 O 11.5914 4.63777 5.10569
 O 12.1825 6.71307 5.67311
 C 10.353 8.60705 8.00724
 O 9.46327 8.02445 7.31536
 O 10.4862 9.86856 7.83077
 O 11.2408 8.01897 8.7291
 C 14.506 8.49231 8.07906
 O 13.845 9.20875 7.24968
 O 14.3923 7.21933 8.04634
 O 15.3192 8.98588 8.94566
 C 9.29675 6.08264 11.2307
 O 8.50487 6.58973 10.3188
 O 9.31144 4.80237 11.5018
 O 10.0627 6.83252 11.8962
 C 13.4275 6.08522 11.2758
 O 12.5058 5.42325 10.5771
 O 13.4922 7.29714 11.2173
 O 14.3441 5.35168 11.9833
 C 8.41371 8.22117 13.9855
 O 9.12884 7.7244 14.8793
 O 7.65767 7.4708 13.3237
 O 8.3338 9.52561 13.7442
 C 12.4127 8.48568 14.2891
 O 11.7257 9.07541 13.3678
 O 12.3632 7.21164 14.4288
 O 13.0308 9.23694 15.0695
 O 0.320599 7.15708 19.3516
 H 0.392463 7.65058 18.4513
 H 15.5446 6.9432 19.549
 O 4.86557 4.2266 17.51
 H 4.57421 4.58221 16.5738
 H 3.97891 4.28317 18.0589
 O 14.7901 0.842141 18.8318
 H 15.7397 0.848349 19.19
 H 14.1774 1.16839 19.5734
 O 6.14944 7.57732 21.0264
 H 5.37633 7.57935 20.3819
 H 6.13879 8.4283 21.6203
 O 0.313191 0.771441 22.8466
 H 15.7717 0.672555 23.4097
 H 0.524223 1.7995 22.8743
 O 0.893468 4.82264 25.9477
 H 16.1933 5.19483 25.9472
 H 1.627 5.54527 26.144
 O 12.9382 7.09207 23.0352
 H 13.6235 6.51579 22.537
 H 12.0158 6.92316 22.724
 O 0.792878 8.81757 25.6358
 H 0.702034 8.15261 24.9007
 H 0.113936 9.61712 25.5281
 O 4.0629 8.40501 19.2857
 H 3.08924 8.2993 19.5833
 H 3.93227 8.24025 18.2407
 O 2.81852 4.10823 21.0409
 H 2.1627 3.82683 21.7891
 H 3.65509 3.44658 21.0663
 O 5.75932 5.4555 24.5893
 H 6.04851 6.28241 24.1714
 H 5.92802 5.41428 25.6105
 O 13.287 3.93489 23.4062
 H 13.4601 3.89118 24.4114
 H 12.2135 3.96639 23.3259
 O 13.3522 1.94804 21.2829
 H 13.2962 2.44604 22.2521
 H 12.757 1.11204 21.2306
 O 12.5 9.73453 17.6964
 H 12.79 9.45126 16.7309
 H 13.2614 0.246235 18.1825
 O 5.8293 0.696265 18.6888
 H 6.24754 1.17379 19.4796
 H 5.16475 0.046064 19.1072
 O 15.1124 1.44723 16.27
 H 14.9846 1.23177 17.2469
 H 15.9252 2.04325 16.1895
 O 14.8772 5.26896 21.6909
 H 14.6598 4.95796 20.7544
 H 14.3551 4.51592 22.2569
 O 6.02739 1.78405 16.3304
 H 5.98494 1.26208 17.1844
 H 5.59758 2.68593 16.5368
 O 1.73303 1.33857 18.4559
 H 2.41678 1.97211 18.9108
 H 1.47616 0.660271 19.1698
 O 10.0701 9.55609 25.6913
 H 10.806 9.45047 24.9808
 H 10.2295 0.463429 26.1566
 O 8.41074 3.72366 21.5895
 H 8.18454 4.66898 21.233
 H 7.6209 3.51769 22.2262
 O 8.8293 1.57061 20.1038
 H 8.70101 1.89193 19.1382
 H 8.78611 2.4619 20.7127
 O 12.2041 3.42679 19.2034
 H 12.7864 2.92353 19.9609
 H 11.3356 2.88961 19.1802
 O 13.7134 5.53685 18.9194
 H 14.1138 5.58307 17.9742
 H 12.9299 4.78933 18.9009
 O 10.7439 4.43027 23.0636
 H 10.0196 3.85869 22.5894
 H 10.7702 5.35275 22.6117
 O 12.0401 9.63091 23.6594
 H 11.9396 0.128891 22.7671
 H 12.1313 8.63534 23.4344
 O 6.60566 3.09725 23.4741
 H 6.31878 3.94191 24.017
 H 6.83577 2.32854 24.1472
 O 2.00031 5.0724 18.7268
 H 2.43793 4.68604 19.599
 H 1.42228 5.89122 19.0527
 O 0.635999 7.05194 23.5277
 H 16.1774 6.49553 23.0117
 H 1.45143 6.47221 23.504
 O 7.35836 5.08833 18.0966
 H 6.3879 4.88298 18.0251
 H 7.48559 5.8843 17.5079
 O 3.25561 0.164507 24.4752
 H 2.54967 0.00752365 23.7907
 H 2.94098 0.628233 25.3279
 O 14.4654 0.617465 24.4389
 H 13.6338 0.281281 24.015
 H 14.4752 0.54365 25.4954
 O 9.03667 2.73039 17.6759
 H 9.04909 2.54277 16.6878
 H 8.26367 3.38876 17.9432
 O 10.2577 9.82558 16.0127
 H 10.059 8.76949 16.0078
 H 10.8871 9.79756 16.87
 O 10.5341 4.99563 16.1162
 H 10.0219 4.11812 16.0477
 H 11.2471 4.95711 16.8833
 O 13.6589 7.41648 25.8636
 H 14.0942 6.4888 25.9713
 H 13.6678 7.45184 24.7874
 O 10.5878 6.80357 21.4768
 H 11.2275 7.11526 20.7101
 H 9.69446 6.63561 20.9986
 O 8.25332 6.13778 20.4209
 H 7.37727 6.71025 20.6266
 H 7.91777 5.79402 19.498
 O 7.67584 0.911561 24.7149
 H 7.15358 0.556612 25.5127
 H 8.16181 0.0958648 24.3004
 O 0.760234 9.7797 20.4641
 H 0.394823 8.84691 20.4339
 H 0.742221 0.0452828 21.4865
 O 8.45432 7.15453 25.7867
 H 7.58334 6.76413 26.1118
 H 9.18726 6.4287 26.0403
 O 11.4149 0.156576 20.9726
 H 11.6295 9.22101 20.5935
 H 10.4319 0.444955 20.6775
 O 14.5703 7.25547 16.1247
 H 15.399 7.66869 16.615
 H 13.9652 7.97176 15.6953
 O 6.89254 7.2198 15.9157
 H 6.53106 8.11165 15.5885
 H 7.89434 7.442 16.0133
 O 4.82442 2.40538 21.8034
 H 4.99388 1.43024 21.9713
 H 5.53992 2.82304 22.4382
 O 2.93625 0.939924 15.9979
 H 3.77552 1.43268 16.2271
 H 2.33657 1.15335 16.833
 O 0.695686 8.88394 17.3811
 H 0.892143 8.80769 16.378
 H 0.914383 9.91151 17.4929
 O 4.43448 8.09332 25.9203
 H 3.90263 7.27112 25.6311
 H 4.11939 8.93822 25.4003
 O 5.07835 2.36857 25.9975
 H 5.62475 1.52884 26.17
 H 4.05737 2.35126 25.9223
 O 3.05293 5.60183 23.4149
 H 2.8272 5.23667 22.5299
 H 4.01585 5.30041 23.6136
 O 5.36815 9.69109 22.7313
 H 4.59124 9.67783 23.384
 H 6.28295 9.7177 23.1826
 O 3.67848 8.15625 16.7635
 H 4.69187 8.02359 16.5017
 H 3.31271 8.95518 16.3147
 O 13.0064 2.60012 25.9363
 H 12.0241 2.4601 26.126
 H 13.4419 1.79853 25.4664
 O 15.2711 4.49827 16.3885
 H 16.1331 4.08492 16.018
 H 14.4263 3.93438 16.1222
 O 7.96266 8.50443 23.4009
 H 8.29168 8.08709 22.5527
 H 8.15652 7.91143 24.2082
 O 9.52142 3.35661 25.5296
 H 9.08595 2.41411 25.2906
 H 10.1141 3.55716 24.7041
 O 0.943627 3.59521 22.8563
 H 0.260054 3.92932 22.1742
 H 0.926117 4.27954 23.6885
 O 2.18341 4.90736 16.1846
 H 2.01273 5.00023 17.2383
 H 1.91539 3.90294 16.0798
 O 12.3735 7.89517 19.5496
 H 12.4348 8.6658 18.84
 H 13.0638 7.13003 19.3229

